[[39, 9, 12, 40, 3, 44, 32, 25, 55, 50, 18, 24, 49, 16, 63, 23, 56, 43, 41, 42, 64, 22, 62], [73, 33, 2, 30, 48, 74, 28, 61, 21, 47, 69, 36, 71, 60, 70, 20, 37, 5, 29, 15, 57, 13, 54, 52, 27], [45, 4, 75, 68, 6, 51, 17, 76, 26, 67, 34, 46, 7, 8, 35, 19, 53, 14, 59, 66, 11, 65, 38, 10, 31, 58, 72]]